prueba5.txt
10
20
1 1 9
2 3 9
3 6 9
4 9 9
5 1 5
6 3 5
7 6 5
8 9 5
9 1 1
10 3 1
11 6 1
12 9 1
13 1 3
14 1 7
15 3 3
16 3 7
17 6 3
18 6 7
19 9 3
20 9 7
